NAME : rbg193.2.tw.21401.tour
COMMENT : Length = 21401
COMMENT : Found by LKH [Keld Helsgaun] Sun Sep 10 01:17:41 2017
TYPE : TOUR
DIMENSION : 192
TOUR_SECTION
1
2
3
5
7
6
4
11
8
10
9
15
12
14
16
17
13
18
19
20
22
21
24
23
32
31
35
28
30
25
27
26
29
41
36
33
37
43
39
40
34
38
46
45
53
51
44
47
42
52
50
56
58
54
60
48
63
61
57
49
59
65
66
62
55
71
69
64
74
68
67
76
78
70
72
73
83
84
86
79
75
77
80
81
82
85
88
87
91
94
93
92
89
96
100
90
97
99
95
102
105
98
106
110
107
118
108
101
109
103
112
113
104
114
115
116
125
117
119
111
124
126
121
123
122
128
120
129
136
142
130
127
139
137
133
135
134
132
131
138
146
143
141
140
144
149
147
145
153
154
150
151
148
161
155
157
156
159
152
158
182
166
165
163
162
180
160
169
174
173
170
175
171
167
164
172
168
183
179
176
186
178
188
189
190
185
177
184
191
181
187
192
-1
EOF
